tsp_instances/TSP20/instance44.tsp
NODE_COORD_SECTION
0 83 157
1 141 8
2 29 85
3 82 73
4 59 68
5 199 122
6 106 46
7 115 36
8 59 120
9 14 82
10 93 126
11 57 50
12 129 46
13 137 28
14 81 97
15 41 84
16 25 182
17 95 11
18 54 83
19 23 148
