tsp_instances/TSP20/instance44.opt.tour
TOUR_SECTION
1
11
6
13
14
2
18
8
7
4
5
12
10
3
16
19
15
9
20
17
-1